p edge 50 327 15
v 1 5
v 3 2 22 29
v 4 4 11 12 44
v 3 16 31 47
v 6 13 25 33 35 39 42
v 2 30 36
v 3 9 18 23
v 5 8 10 32 37 45
v 4 7 27 38 41
v 3 26 46 49
v 4 1 14 34 43
v 3 6 24 40
v 2 17 20
v 2 3 19
v 5 15 21 28 48 50
e 1 3
e 1 4
e 1 5
e 1 9
e 1 10
e 1 17
e 1 19
e 1 20
e 1 25
e 1 30
e 1 35
e 1 38
e 1 50
e 2 3
e 2 4
e 2 6
e 2 8
e 2 13
e 2 16
e 2 19
e 2 21
e 2 26
e 2 28
e 2 36
e 2 43
e 2 45
e 2 46
e 2 47
e 2 49
e 3 4
e 3 5
e 3 6
e 3 8
e 3 12
e 3 15
e 3 18
e 3 20
e 3 38
e 3 45
e 4 15
e 4 16
e 4 17
e 4 25
e 4 26
e 4 27
e 4 30
e 4 31
e 4 33
e 4 37
e 4 41
e 4 42
e 4 46
e 4 47
e 4 48
e 4 49
e 4 50
e 5 10
e 5 13
e 5 27
e 5 30
e 5 35
e 5 37
e 5 42
e 5 44
e 5 47
e 5 49
e 6 13
e 6 20
e 6 21
e 6 27
e 6 29
e 6 36
e 6 39
e 6 41
e 6 48
e 7 8
e 7 9
e 7 12
e 7 24
e 7 32
e 7 33
e 7 41
e 7 42
e 7 44
e 7 50
e 8 18
e 8 19
e 8 37
e 8 39
e 8 41
e 8 50
e 9 11
e 9 18
e 9 41
e 9 45
e 9 48
e 10 11
e 10 12
e 10 16
e 10 17
e 10 21
e 10 29
e 10 35
e 10 36
e 10 37
e 10 38
e 10 40
e 10 47
e 10 50
e 11 12
e 11 15
e 11 16
e 11 21
e 11 23
e 11 26
e 11 28
e 11 30
e 11 35
e 11 39
e 11 40
e 11 42
e 11 43
e 11 45
e 11 48
e 11 50
e 12 13
e 12 14
e 12 27
e 12 28
e 12 29
e 12 32
e 12 34
e 12 38
e 12 40
e 12 44
e 12 45
e 12 49
e 13 14
e 13 17
e 13 18
e 13 24
e 13 25
e 13 29
e 13 34
e 13 45
e 13 47
e 13 49
e 14 17
e 14 20
e 14 21
e 14 25
e 14 30
e 14 37
e 14 45
e 14 46
e 14 49
e 15 17
e 15 31
e 15 41
e 15 44
e 15 48
e 15 49
e 15 50
e 16 18
e 16 22
e 16 24
e 16 26
e 16 27
e 16 28
e 16 30
e 16 32
e 16 33
e 16 34
e 16 40
e 16 42
e 17 22
e 17 28
e 17 29
e 17 30
e 17 31
e 17 32
e 17 37
e 17 46
e 18 19
e 18 28
e 18 31
e 18 32
e 18 34
e 18 37
e 18 38
e 18 39
e 18 42
e 19 23
e 19 27
e 19 38
e 19 40
e 19 41
e 19 48
e 19 50
e 20 27
e 20 29
e 20 31
e 20 32
e 20 34
e 20 45
e 20 46
e 21 22
e 21 26
e 21 32
e 21 33
e 21 35
e 21 38
e 21 41
e 21 42
e 21 44
e 21 49
e 22 23
e 22 25
e 22 26
e 22 29
e 22 34
e 22 35
e 22 36
e 22 37
e 22 40
e 22 46
e 22 50
e 23 26
e 23 27
e 23 30
e 23 32
e 23 34
e 23 39
e 23 43
e 23 46
e 23 47
e 23 48
e 23 50
e 24 45
e 25 28
e 25 29
e 25 38
e 25 40
e 25 43
e 25 44
e 25 46
e 25 47
e 26 33
e 26 41
e 26 45
e 26 47
e 26 48
e 27 33
e 27 36
e 27 39
e 27 42
e 27 49
e 28 30
e 28 32
e 28 33
e 28 40
e 28 45
e 28 50
e 29 30
e 29 32
e 29 34
e 29 36
e 29 38
e 29 48
e 30 32
e 30 33
e 30 34
e 30 35
e 30 36
e 30 44
e 31 33
e 31 34
e 31 42
e 31 46
e 31 48
e 32 37
e 32 39
e 32 45
e 32 49
e 32 50
e 33 36
e 33 37
e 33 38
e 33 40
e 33 47
e 33 48
e 34 42
e 34 49
e 34 50
e 35 37
e 35 39
e 35 41
e 35 47
e 36 37
e 36 38
e 36 47
e 36 48
e 37 39
e 37 43
e 37 49
e 38 42
e 38 44
e 38 45
e 38 46
e 38 48
e 39 43
e 39 44
e 39 48
e 40 41
e 40 45
e 40 46
e 41 50
e 42 43
e 42 44
e 42 47
e 43 49
e 44 47
e 44 49
e 45 48
e 46 49
e 47 49
e 47 50
